p tw 128 21121 2 
1 66 
1 67 
1 69 
1 72 
1 73 
1 75 
1 77 
1 79 
1 81 
1 84 
1 85 
1 87 
1 89 
1 92 
1 93 
1 95 
1 98 
1 99 
1 101 
1 103 
1 105 
1 108 
1 109 
1 111 
1 113 
1 115 
1 117 
1 120 
1 121 
1 123 
1 125 
1 128 
2 65 
2 68 
2 70 
2 71 
2 74 
2 76 
2 78 
2 80 
2 82 
2 83 
2 86 
2 88 
2 90 
2 91 
2 94 
2 96 
2 97 
2 100 
2 102 
2 104 
2 106 
2 107 
2 110 
2 112 
2 114 
2 116 
2 118 
2 119 
2 122 
2 124 
2 126 
2 127 
3 4 
3 66 
3 67 
3 70 
3 71 
3 74 
3 75 
3 78 
3 79 
3 82 
3 84 
3 86 
3 88 
3 90 
3 92 
3 93 
3 96 
3 97 
3 99 
3 102 
3 103 
3 105 
3 108 
3 109 
3 112 
3 113 
3 115 
3 117 
3 119 
3 122 
3 124 
3 125 
3 127 
4 65 
4 68 
4 69 
4 72 
4 73 
4 76 
4 77 
4 80 
4 81 
4 83 
4 85 
4 87 
4 89 
4 91 
4 94 
4 95 
4 98 
4 100 
4 101 
4 104 
4 106 
4 107 
4 110 
4 111 
4 114 
4 116 
4 118 
4 120 
4 121 
4 123 
4 126 
4 128 
5 6 
5 65 
5 68 
5 70 
5 71 
5 74 
5 75 
5 77 
5 79 
5 81 
5 83 
5 85 
5 88 
5 90 
5 92 
5 94 
5 95 
5 97 
5 100 
5 102 
5 104 
5 105 
5 108 
5 109 
5 111 
5 113 
5 116 
5 117 
5 120 
5 122 
5 123 
5 126 
5 128 
6 66 
6 67 
6 69 
6 72 
6 73 
6 76 
6 78 
6 80 
6 82 
6 84 
6 86 
6 87 
6 89 
6 91 
6 93 
6 96 
6 98 
6 99 
6 101 
6 103 
6 106 
6 107 
6 110 
6 112 
6 114 
6 115 
6 118 
6 119 
6 121 
6 124 
6 125 
6 127 
7 8 
7 66 
7 67 
7 70 
7 71 
7 73 
7 76 
7 78 
7 79 
7 82 
7 83 
7 86 
7 87 
7 90 
7 91 
7 93 
7 95 
7 98 
7 100 
7 102 
7 104 
7 105 
7 108 
7 109 
7 111 
7 114 
7 116 
7 118 
7 120 
7 121 
7 123 
7 125 
7 127 
8 65 
8 68 
8 69 
8 72 
8 74 
8 75 
8 77 
8 80 
8 81 
8 84 
8 85 
8 88 
8 89 
8 92 
8 94 
8 96 
8 97 
8 99 
8 101 
8 103 
8 106 
8 107 
8 110 
8 112 
8 113 
8 115 
8 117 
8 119 
8 122 
8 124 
8 126 
8 128 
9 10 
9 66 
9 68 
9 70 
9 71 
9 73 
9 76 
9 78 
9 79 
9 81 
9 84 
9 85 
9 87 
9 90 
9 91 
9 94 
9 95 
9 98 
9 99 
9 101 
9 103 
9 105 
9 107 
9 110 
9 112 
9 113 
9 116 
9 117 
9 120 
9 122 
9 124 
9 126 
9 127 
10 65 
10 67 
10 69 
10 72 
10 74 
10 75 
10 77 
10 80 
10 82 
10 83 
10 86 
10 88 
10 89 
10 92 
10 93 
10 96 
10 97 
10 100 
10 102 
10 104 
10 106 
10 108 
10 109 
10 111 
10 114 
10 115 
10 118 
10 119 
10 121 
10 123 
10 125 
10 128 
11 12 
11 66 
11 67 
11 70 
11 72 
11 73 
11 76 
11 77 
11 80 
11 81 
11 84 
11 85 
11 88 
11 90 
11 92 
11 94 
11 96 
11 97 
11 100 
11 101 
11 104 
11 105 
11 107 
11 109 
11 112 
11 114 
11 116 
11 117 
11 119 
11 121 
11 123 
11 125 
11 127 
12 65 
12 68 
12 69 
12 71 
12 74 
12 75 
12 78 
12 79 
12 82 
12 83 
12 86 
12 87 
12 89 
12 91 
12 93 
12 95 
12 98 
12 99 
12 102 
12 103 
12 106 
12 108 
12 110 
12 111 
12 113 
12 115 
12 118 
12 120 
12 122 
12 124 
12 126 
12 128 
13 14 
13 65 
13 68 
13 70 
13 72 
13 73 
13 75 
13 77 
13 79 
13 82 
13 83 
13 86 
13 87 
13 90 
13 91 
13 94 
13 96 
13 98 
13 99 
13 101 
13 104 
13 106 
13 108 
13 109 
13 112 
13 113 
13 116 
13 117 
13 119 
13 121 
13 124 
13 125 
13 128 
14 66 
14 67 
14 69 
14 71 
14 74 
14 76 
14 78 
14 80 
14 81 
14 84 
14 85 
14 88 
14 89 
14 92 
14 93 
14 95 
14 97 
14 100 
14 102 
14 103 
14 105 
14 107 
14 110 
14 111 
14 114 
14 115 
14 118 
14 120 
14 122 
14 123 
14 126 
14 127 
15 16 
15 66 
15 67 
15 69 
15 71 
15 73 
15 75 
15 77 
15 80 
15 82 
15 83 
15 86 
15 88 
15 90 
15 92 
15 94 
15 96 
15 98 
15 99 
15 101 
15 103 
15 106 
15 107 
15 109 
15 111 
15 113 
15 116 
15 118 
15 120 
15 122 
15 123 
15 126 
15 127 
16 65 
16 68 
16 70 
16 72 
16 74 
16 76 
16 78 
16 79 
16 81 
16 84 
16 85 
16 87 
16 89 
16 91 
16 93 
16 95 
16 97 
16 100 
16 102 
16 104 
16 105 
16 108 
16 110 
16 112 
16 114 
16 115 
16 117 
16 119 
16 121 
16 124 
16 125 
16 128 
17 18 
17 66 
17 67 
17 70 
17 72 
17 74 
17 75 
17 77 
17 80 
17 81 
17 83 
17 86 
17 87 
17 90 
17 91 
17 94 
17 95 
17 98 
17 100 
17 102 
17 103 
17 105 
17 107 
17 110 
17 112 
17 113 
17 115 
17 118 
17 119 
17 122 
17 123 
17 125 
17 128 
18 65 
18 68 
18 69 
18 71 
18 73 
18 76 
18 78 
18 79 
18 82 
18 84 
18 85 
18 88 
18 89 
18 92 
18 93 
18 96 
18 97 
18 99 
18 101 
18 104 
18 106 
18 108 
18 109 
18 111 
18 114 
18 116 
18 117 
18 120 
18 121 
18 124 
18 126 
18 127 
19 20 
19 65 
19 67 
19 69 
19 72 
19 73 
19 75 
19 77 
19 79 
19 82 
19 84 
19 85 
19 87 
19 90 
19 91 
19 93 
19 96 
19 97 
19 100 
19 102 
19 103 
19 105 
19 107 
19 109 
19 112 
19 114 
19 116 
19 118 
19 120 
19 122 
19 124 
19 126 
19 128 
20 66 
20 68 
20 70 
20 71 
20 74 
20 76 
20 78 
20 80 
20 81 
20 83 
20 86 
20 88 
20 89 
20 92 
20 94 
20 95 
20 98 
20 99 
20 101 
20 104 
20 106 
20 108 
20 110 
20 111 
20 113 
20 115 
20 117 
20 119 
20 121 
20 123 
20 125 
20 127 
21 22 
21 66 
21 68 
21 70 
21 72 
21 74 
21 75 
21 78 
21 80 
21 82 
21 84 
21 86 
21 88 
21 89 
21 92 
21 94 
21 95 
21 98 
21 100 
21 101 
21 103 
21 105 
21 108 
21 109 
21 112 
21 114 
21 116 
21 118 
21 120 
21 121 
21 124 
21 126 
21 128 
22 65 
22 67 
22 69 
22 71 
22 73 
22 76 
22 77 
22 79 
22 81 
22 83 
22 85 
22 87 
22 90 
22 91 
22 93 
22 96 
22 97 
22 99 
22 102 
22 104 
22 106 
22 107 
22 110 
22 111 
22 113 
22 115 
22 117 
22 119 
22 122 
22 123 
22 125 
22 127 
23 24 
23 66 
23 68 
23 70 
23 72 
23 74 
23 75 
23 77 
23 80 
23 82 
23 84 
23 86 
23 87 
23 89 
23 91 
23 93 
23 96 
23 97 
23 99 
23 102 
23 104 
23 105 
23 107 
23 110 
23 111 
23 113 
23 116 
23 117 
23 120 
23 121 
23 123 
23 126 
23 127 
24 65 
24 67 
24 69 
24 71 
24 73 
24 76 
24 78 
24 79 
24 81 
24 83 
24 85 
24 88 
24 90 
24 92 
24 94 
24 95 
24 98 
24 100 
24 101 
24 103 
24 106 
24 108 
24 109 
24 112 
24 114 
24 115 
24 118 
24 119 
24 122 
24 124 
24 125 
24 128 
25 26 
25 66 
25 67 
25 69 
25 72 
25 74 
25 76 
25 78 
25 80 
25 82 
25 84 
25 85 
25 87 
25 90 
25 92 
25 94 
25 96 
25 98 
25 100 
25 102 
25 104 
25 106 
25 108 
25 110 
25 111 
25 113 
25 116 
25 117 
25 120 
25 122 
25 124 
25 125 
25 128 
26 65 
26 68 
26 70 
26 71 
26 73 
26 75 
26 77 
26 79 
26 81 
26 83 
26 86 
26 88 
26 89 
26 91 
26 93 
26 95 
26 97 
26 99 
26 101 
26 103 
26 105 
26 107 
26 109 
26 112 
26 114 
26 115 
26 118 
26 119 
26 121 
26 123 
26 126 
26 127 
27 28 
27 65 
27 67 
27 70 
27 71 
27 73 
27 75 
27 78 
27 79 
27 82 
27 84 
27 86 
27 87 
27 89 
27 92 
27 94 
27 96 
27 98 
27 100 
27 101 
27 104 
27 105 
27 107 
27 110 
27 111 
27 114 
27 115 
27 117 
27 119 
27 122 
27 123 
27 126 
27 128 
28 66 
28 68 
28 69 
28 72 
28 74 
28 76 
28 77 
28 80 
28 81 
28 83 
28 85 
28 88 
28 90 
28 91 
28 93 
28 95 
28 97 
28 99 
28 102 
28 103 
28 106 
28 108 
28 109 
28 112 
28 113 
28 116 
28 118 
28 120 
28 121 
28 124 
28 125 
28 127 
29 30 
29 66 
29 68 
29 69 
29 72 
29 73 
29 75 
29 78 
29 79 
29 82 
29 83 
29 85 
29 88 
29 89 
29 91 
29 94 
29 96 
29 97 
29 100 
29 101 
29 104 
29 105 
29 108 
29 110 
29 112 
29 113 
29 115 
29 118 
29 120 
29 122 
29 123 
29 125 
29 127 
30 65 
30 67 
30 70 
30 71 
30 74 
30 76 
30 77 
30 80 
30 81 
30 84 
30 86 
30 87 
30 90 
30 92 
30 93 
30 95 
30 98 
30 99 
30 102 
30 103 
30 106 
30 107 
30 109 
30 111 
30 114 
30 116 
30 117 
30 119 
30 121 
30 124 
30 126 
30 128 
31 32 
31 65 
31 67 
31 70 
31 72 
31 74 
31 75 
31 78 
31 79 
31 81 
31 84 
31 85 
31 88 
31 90 
31 91 
31 93 
31 96 
31 98 
31 100 
31 101 
31 103 
31 106 
31 108 
31 110 
31 111 
31 113 
31 116 
31 118 
31 119 
31 121 
31 123 
31 126 
31 127 
32 66 
32 68 
32 69 
32 71 
32 73 
32 76 
32 77 
32 80 
32 82 
32 83 
32 86 
32 87 
32 89 
32 92 
32 94 
32 95 
32 97 
32 99 
32 102 
32 104 
32 105 
32 107 
32 109 
32 112 
32 114 
32 115 
32 117 
32 120 
32 122 
32 124 
32 125 
32 128 
33 34 
33 66 
33 67 
33 70 
33 72 
33 74 
33 76 
33 78 
33 79 
33 82 
33 83 
33 85 
33 87 
33 89 
33 92 
33 93 
33 95 
33 97 
33 99 
33 101 
33 104 
33 106 
33 107 
33 109 
33 112 
33 113 
33 116 
33 118 
33 119 
33 122 
33 123 
33 126 
33 128 
34 65 
34 68 
34 69 
34 71 
34 73 
34 75 
34 77 
34 80 
34 81 
34 84 
34 86 
34 88 
34 90 
34 91 
34 94 
34 96 
34 98 
34 100 
34 102 
34 103 
34 105 
34 108 
34 110 
34 111 
34 114 
34 115 
34 117 
34 120 
34 121 
34 124 
34 125 
34 127 
35 36 
35 66 
35 68 
35 69 
35 71 
35 74 
35 75 
35 77 
35 80 
35 82 
35 84 
35 85 
35 87 
35 90 
35 91 
35 93 
35 95 
35 98 
35 100 
35 101 
35 104 
35 106 
35 108 
35 109 
35 112 
35 114 
35 115 
35 117 
35 119 
35 122 
35 123 
35 126 
35 127 
36 65 
36 67 
36 70 
36 72 
36 73 
36 76 
36 78 
36 79 
36 81 
36 83 
36 86 
36 88 
36 89 
36 92 
36 94 
36 96 
36 97 
36 99 
36 102 
36 103 
36 105 
36 107 
36 110 
36 111 
36 113 
36 116 
36 118 
36 120 
36 121 
36 124 
36 125 
36 128 
37 38 
37 66 
37 67 
37 69 
37 71 
37 74 
37 76 
37 77 
37 79 
37 82 
37 83 
37 85 
37 88 
37 89 
37 91 
37 94 
37 96 
37 98 
37 99 
37 102 
37 103 
37 105 
37 108 
37 110 
37 112 
37 114 
37 116 
37 117 
37 119 
37 121 
37 123 
37 126 
37 128 
38 65 
38 68 
38 70 
38 72 
38 73 
38 75 
38 78 
38 80 
38 81 
38 84 
38 86 
38 87 
38 90 
38 92 
38 93 
38 95 
38 97 
38 100 
38 101 
38 104 
38 106 
38 107 
38 109 
38 111 
38 113 
38 115 
38 118 
38 120 
38 122 
38 124 
38 125 
38 127 
39 40 
39 65 
39 67 
39 70 
39 71 
39 73 
39 76 
39 77 
39 80 
39 82 
39 84 
39 86 
39 88 
39 89 
39 91 
39 93 
39 95 
39 97 
39 100 
39 101 
39 103 
39 106 
39 108 
39 110 
39 112 
39 113 
39 116 
39 117 
39 120 
39 122 
39 123 
39 125 
39 128 
40 66 
40 68 
40 69 
40 72 
40 74 
40 75 
40 78 
40 79 
40 81 
40 83 
40 85 
40 87 
40 90 
40 92 
40 94 
40 96 
40 98 
40 99 
40 102 
40 104 
40 105 
40 107 
40 109 
40 111 
40 114 
40 115 
40 118 
40 119 
40 121 
40 124 
40 126 
40 127 
41 42 
41 66 
41 68 
41 70 
41 72 
41 73 
41 76 
41 77 
41 79 
41 81 
41 84 
41 86 
41 88 
41 90 
41 92 
41 93 
41 96 
41 98 
41 99 
41 102 
41 104 
41 106 
41 108 
41 110 
41 112 
41 114 
41 115 
41 118 
41 120 
41 122 
41 123 
41 126 
41 128 
42 65 
42 67 
42 69 
42 71 
42 74 
42 75 
42 78 
42 80 
42 82 
42 83 
42 85 
42 87 
42 89 
42 91 
42 94 
42 95 
42 97 
42 100 
42 101 
42 103 
42 105 
42 107 
42 109 
42 111 
42 113 
42 116 
42 117 
42 119 
42 121 
42 124 
42 125 
42 127 
43 44 
43 66 
43 68 
43 69 
43 72 
43 73 
43 76 
43 78 
43 79 
43 82 
43 84 
43 86 
43 88 
43 90 
43 91 
43 94 
43 95 
43 97 
43 100 
43 102 
43 103 
43 106 
43 107 
43 109 
43 111 
43 113 
43 115 
43 117 
43 119 
43 121 
43 123 
43 126 
43 128 
44 65 
44 67 
44 70 
44 71 
44 74 
44 75 
44 77 
44 80 
44 81 
44 83 
44 85 
44 87 
44 89 
44 92 
44 93 
44 96 
44 98 
44 99 
44 101 
44 104 
44 105 
44 108 
44 110 
44 112 
44 114 
44 116 
44 118 
44 120 
44 122 
44 124 
44 125 
44 127 
45 46 
45 66 
45 68 
45 70 
45 71 
45 73 
45 75 
45 78 
45 80 
45 81 
45 84 
45 85 
45 87 
45 89 
45 91 
45 94 
45 96 
45 97 
45 99 
45 102 
45 103 
45 106 
45 108 
45 109 
45 111 
45 114 
45 116 
45 118 
45 119 
45 122 
45 123 
45 125 
45 128 
46 65 
46 67 
46 69 
46 72 
46 74 
46 76 
46 77 
46 79 
46 82 
46 83 
46 86 
46 88 
46 90 
46 92 
46 93 
46 95 
46 98 
46 100 
46 101 
46 104 
46 105 
46 107 
46 110 
46 112 
46 113 
46 115 
46 117 
46 120 
46 121 
46 124 
46 126 
46 127 
47 48 
47 65 
47 67 
47 69 
47 72 
47 74 
47 75 
47 78 
47 79 
47 81 
47 84 
47 86 
47 88 
47 89 
47 91 
47 94 
47 95 
47 98 
47 99 
47 102 
47 104 
47 106 
47 107 
47 109 
47 112 
47 114 
47 116 
47 117 
47 120 
47 122 
47 123 
47 125 
47 127 
48 66 
48 68 
48 70 
48 71 
48 73 
48 76 
48 77 
48 80 
48 82 
48 83 
48 85 
48 87 
48 90 
48 92 
48 93 
48 96 
48 97 
48 100 
48 101 
48 103 
48 105 
48 108 
48 110 
48 111 
48 113 
48 115 
48 118 
48 119 
48 121 
48 124 
48 126 
48 128 
49 50 
49 65 
49 68 
49 69 
49 71 
49 73 
49 75 
49 78 
49 80 
49 82 
49 84 
49 85 
49 88 
49 90 
49 92 
49 93 
49 95 
49 98 
49 99 
49 102 
49 104 
49 105 
49 107 
49 110 
49 112 
49 113 
49 116 
49 118 
49 119 
49 121 
49 123 
49 125 
49 128 
50 66 
50 67 
50 70 
50 72 
50 74 
50 76 
50 77 
50 79 
50 81 
50 83 
50 86 
50 87 
50 89 
50 91 
50 94 
50 96 
50 97 
50 100 
50 101 
50 103 
50 106 
50 108 
50 109 
50 111 
50 114 
50 115 
50 117 
50 120 
50 122 
50 124 
50 126 
50 127 
51 52 
51 65 
51 67 
51 70 
51 72 
51 73 
51 75 
51 78 
51 80 
51 82 
51 83 
51 85 
51 87 
51 90 
51 92 
51 94 
51 95 
51 97 
51 99 
51 102 
51 103 
51 106 
51 108 
51 110 
51 112 
51 114 
51 115 
51 117 
51 120 
51 121 
51 123 
51 126 
51 127 
52 66 
52 68 
52 69 
52 71 
52 74 
52 76 
52 77 
52 79 
52 81 
52 84 
52 86 
52 88 
52 89 
52 91 
52 93 
52 96 
52 98 
52 100 
52 101 
52 104 
52 105 
52 107 
52 109 
52 111 
52 113 
52 116 
52 118 
52 119 
52 122 
52 124 
52 125 
52 128 
53 54 
53 65 
53 68 
53 69 
53 72 
53 73 
53 76 
53 78 
53 80 
53 81 
53 83 
53 86 
53 87 
53 89 
53 92 
53 93 
53 96 
53 98 
53 100 
53 102 
53 103 
53 105 
53 108 
53 109 
53 112 
53 113 
53 116 
53 117 
53 119 
53 122 
53 123 
53 126 
53 127 
54 66 
54 67 
54 70 
54 71 
54 74 
54 75 
54 77 
54 79 
54 82 
54 84 
54 85 
54 88 
54 90 
54 91 
54 94 
54 95 
54 97 
54 99 
54 101 
54 104 
54 106 
54 107 
54 110 
54 111 
54 114 
54 115 
54 118 
54 120 
54 121 
54 124 
54 125 
54 128 
55 56 
55 66 
55 67 
55 70 
55 71 
55 73 
55 75 
55 78 
55 80 
55 81 
55 83 
55 85 
55 88 
55 89 
55 91 
55 93 
55 96 
55 98 
55 100 
55 102 
55 104 
55 106 
55 107 
55 109 
55 112 
55 113 
55 115 
55 117 
55 120 
55 121 
55 124 
55 126 
55 128 
56 65 
56 68 
56 69 
56 72 
56 74 
56 76 
56 77 
56 79 
56 82 
56 84 
56 86 
56 87 
56 90 
56 92 
56 94 
56 95 
56 97 
56 99 
56 101 
56 103 
56 105 
56 108 
56 110 
56 111 
56 114 
56 116 
56 118 
56 119 
56 122 
56 123 
56 125 
56 127 
57 58 
57 66 
57 67 
57 69 
57 72 
57 73 
57 75 
57 78 
57 80 
57 81 
57 83 
57 86 
57 88 
57 90 
57 91 
57 93 
57 95 
57 97 
57 99 
57 101 
57 104 
57 105 
57 108 
57 110 
57 111 
57 114 
57 116 
57 117 
57 119 
57 122 
57 124 
57 126 
57 128 
58 65 
58 68 
58 70 
58 71 
58 74 
58 76 
58 77 
58 79 
58 82 
58 84 
58 85 
58 87 
58 89 
58 92 
58 94 
58 96 
58 98 
58 100 
58 102 
58 103 
58 106 
58 107 
58 109 
58 112 
58 113 
58 115 
58 118 
58 120 
58 121 
58 123 
58 125 
58 127 
59 60 
59 65 
59 68 
59 70 
59 72 
59 74 
59 76 
59 78 
59 80 
59 82 
59 83 
59 85 
59 88 
59 90 
59 91 
59 93 
59 96 
59 98 
59 99 
59 101 
59 103 
59 105 
59 107 
59 109 
59 111 
59 114 
59 115 
59 117 
59 120 
59 122 
59 123 
59 125 
59 128 
60 66 
60 67 
60 69 
60 71 
60 73 
60 75 
60 77 
60 79 
60 81 
60 84 
60 86 
60 87 
60 89 
60 92 
60 94 
60 95 
60 97 
60 100 
60 102 
60 104 
60 106 
60 108 
60 110 
60 112 
60 113 
60 116 
60 118 
60 119 
60 121 
60 124 
60 126 
60 127 
61 62 
61 65 
61 67 
61 70 
61 72 
61 73 
61 76 
61 77 
61 80 
61 82 
61 84 
61 85 
61 88 
61 89 
61 91 
61 94 
61 95 
61 98 
61 99 
61 102 
61 104 
61 105 
61 108 
61 109 
61 111 
61 113 
61 115 
61 118 
61 119 
61 122 
61 124 
61 126 
61 127 
62 66 
62 68 
62 69 
62 71 
62 74 
62 75 
62 78 
62 79 
62 81 
62 83 
62 86 
62 87 
62 90 
62 92 
62 93 
62 96 
62 97 
62 100 
62 101 
62 103 
62 106 
62 107 
62 110 
62 112 
62 114 
62 116 
62 117 
62 120 
62 121 
62 123 
62 125 
62 128 
63 64 
63 66 
63 68 
63 70 
63 72 
63 73 
63 75 
63 77 
63 79 
63 82 
63 83 
63 85 
63 88 
63 89 
63 92 
63 93 
63 95 
63 98 
63 100 
63 102 
63 103 
63 106 
63 107 
63 110 
63 111 
63 114 
63 116 
63 117 
63 119 
63 122 
63 124 
63 125 
63 127 
64 65 
64 67 
64 69 
64 71 
64 74 
64 76 
64 78 
64 80 
64 81 
64 84 
64 86 
64 87 
64 90 
64 91 
64 94 
64 96 
64 97 
64 99 
64 101 
64 104 
64 105 
64 108 
64 109 
64 112 
64 113 
64 115 
64 118 
64 120 
64 121 
64 123 
64 126 
64 128 
65 66 
67 68 
69 70 
71 72 
73 74 
75 76 
77 78 
79 80 
81 82 
83 84 
85 86 
87 88 
89 90 
91 92 
93 94 
95 96 
97 98 
99 100 
101 102 
103 104 
105 106 
107 108 
109 110 
111 112 
113 114 
115 116 
117 118 
119 120 
121 122 
123 124 
125 126 
127 128 
